
Gurobi 12.0.2 (mac64[arm]) logging started Tue Jun 24 07:59:44 2025

Set parameter LogFile to value "../../result/data/prodhon/coord100-5-1-2e.log"
Gurobi Optimizer version 12.0.2 build v12.0.2rc0 (mac64[arm] - Darwin 24.5.0 24F74)

CPU model: Apple M4
Thread count: 10 physical cores, 10 logical processors, using up to 10 threads

Non-default parameters:
TimeLimit  7200

Optimize a model with 366743 rows, 382910 columns and 5984005 nonzeros
Model fingerprint: 0xdc15a4da
Variable types: 6405 continuous, 376505 integer (376505 binary)
Coefficient statistics:
  Matrix range     [5e-02, 1e+04]
  Objective range  [4e-02, 5e+05]
  Bounds range     [1e+00, 7e+01]
  RHS range        [1e+00, 2e+04]
Presolve removed 3029 rows and 2348 columns (presolve time = 5s)...
Presolve removed 3830 rows and 2751 columns
Presolve time: 6.46s
Presolved: 362913 rows, 380159 columns, 5967679 nonzeros
Variable types: 5375 continuous, 374784 integer (374784 binary)
Deterministic concurrent LP optimizer: primal simplex, dual simplex, and barrier
Showing barrier log only...

Root barrier log...

Ordering time: 0.12s

Barrier performed 0 iterations in 8.79 seconds (27.87 work units)
Barrier solve interrupted - model solved by another algorithm

Concurrent spin time: 0.13s (can be avoided by choosing Method=3)

Solved with dual simplex

Root simplex log...

Iteration    Objective       Primal Inf.    Dual Inf.      Time
    1684    3.1059650e+06   0.000000e+00   0.000000e+00      9s

Use crossover to convert LP symmetric solution to basic solution...

Root crossover log...

       0 DPushes remaining with DInf 0.0000000e+00                 9s

    3121 PPushes remaining with PInf 0.0000000e+00                 9s
       0 PPushes remaining with PInf 0.0000000e+00                 9s

  Push phase complete: Pinf 0.0000000e+00, Dinf 7.1699375e+03      9s


Root simplex log...

Iteration    Objective       Primal Inf.    Dual Inf.      Time
    7293    3.1059650e+06   0.000000e+00   7.169938e+03      9s
    7647    3.1059650e+06   0.000000e+00   0.000000e+00      9s
    7647    3.1059650e+06   0.000000e+00   0.000000e+00      9s

Root relaxation: objective 3.105965e+06, 7647 iterations, 1.56 seconds (4.04 work units)
Total elapsed time = 10.01s (DegenMoves)

    Nodes    |    Current Node    |     Objective Bounds      |     Work
 Expl Unexpl |  Obj  Depth IntInf | Incumbent    BestBd   Gap | It/Node Time

     0     0 3105965.00    0  222          - 3105965.00      -     -   10s
     0     0 3105965.00    0  223          - 3105965.00      -     -   15s
     0     0 3105965.00    0  225          - 3105965.00      -     -   18s
     0     0 3105965.00    0  216          - 3105965.00      -     -   22s
     0     0 3105965.00    0  212          - 3105965.00      -     -   24s
     0     0 3105965.00    0  217          - 3105965.00      -     -   28s
     0     0 3105965.00    0  219          - 3105965.00      -     -   30s
     0     0 3105965.00    0  210          - 3105965.00      -     -   34s
     0     0 3105965.00    0  212          - 3105965.00      -     -   35s
     0     0 3105965.00    0  213          - 3105965.00      -     -   40s
     0     0 3105965.00    0  213          - 3105965.00      -     -   41s
     0     2 3105965.00    0  211          - 3105965.00      -     -   64s
     3     8 3106375.00    2  209          - 3106245.00      -   683   65s
     7    16 3106375.00    3  210          - 3106375.00      -   345   70s
    25    45 3107064.00    5  207          - 3106718.81      -   272   76s
    44    63 3108198.00    7  215          - 3106732.97      -   185   80s
   133   153 3108915.88   11  223          - 3106732.97      -   197   86s
   205   219 3109959.39   14  209          - 3106732.97      -   172   90s
   322   337 3110935.99   22  213          - 3106732.97      -   156   95s
   430   446 3111347.65   28  213          - 3106732.97      -   144  100s
   524   550 3112076.80   36  222          - 3106732.97      -   140  105s
   688   715 3112950.03   48  220          - 3106732.97      -   127  111s
   777   810 3113239.24   53  218          - 3106732.97      -   124  115s
   914   948 3114670.91   62  228          - 3106732.97      -   126  121s
   999  1028 3114998.75   70  223          - 3106732.97      -   128  126s
  1101  1138 3115748.59   80  218          - 3106732.97      -   129  131s
  1200  1231 3116408.03   90  215          - 3106732.97      -   126  136s
  1308  1354 3116730.99  101  211          - 3106732.97      -   125  142s
  1428  1481 3117308.81  113  213          - 3106732.97      -   122  147s
  1496  1546 3118076.39  121  213          - 3106732.97      -   122  151s
  1623  1666 3118777.33  127  216          - 3106732.97      -   131  159s
  1686  1732 3119215.63  135  224          - 3106732.97      -   135  162s
  1753  1802 3119400.80  139  228          - 3106732.97      -   135  166s
  1825  1876 3119628.95  146  223          - 3106732.97      -   137  170s
  1975  2016 3120240.60  159  215          - 3106732.97      -   142  179s
  2051  2085 3120472.42  161  212          - 3106732.97      -   146  183s
  2131  2177 3120861.97  166  214          - 3106732.97      -   151  189s
  2223  2275 3121646.00  170  217          - 3106732.97      -   152  194s
  2323  2377 3124770.91  175  208          - 3106732.97      -   153  200s
  2426  2484 3125369.35  185  202          - 3106732.97      -   152  205s
  2533  2596 3126090.99  198  208          - 3106732.97      -   150  211s
  2647  2698 3126448.04  205  217          - 3106732.97      -   149  217s
  2752  2819 3126960.98  213  217          - 3106732.97      -   149  224s
  2876  2958 3127362.65  226  208          - 3106732.97      -   149  230s
  3020  3078 3128014.46  238  218          - 3106732.97      -   148  239s
  3147  3162 3128691.29  253  214          - 3106732.97      -   148  245s
  3245  3262 3129024.62  261  221          - 3106732.97      -   151  252s
  3346  3407 3129258.30  274  223          - 3106732.97      -   154  259s
  3491  3528 3130025.92  295  221          - 3106732.97      -   151  267s
  3613  3689 3130706.44  305  229          - 3106732.97      -   149  276s
  3777  3807 3131719.24  322  215          - 3106732.97      -   148  284s
  3905  3981 3132931.66  335  219          - 3106732.97      -   149  293s
  4080  4133 3199138.17  352  786          - 3106732.97      -   149  303s
  4235  4318 3509618.16  358  304          - 3106732.97      -   148  313s
  4422  4494 3510550.40  379  315          - 3106732.97      -   147  322s
  4599  4662 3513723.11  393  297          - 3106732.97      -   147  333s
  4772  4830 3523556.48  414  306          - 3106732.97      -   148  343s
  4946  4988 3555486.70  430  305          - 3106732.97      -   150  355s
  5108  5149 3557949.61  440  316          - 3106732.97      -   150  366s
  5272  5359 3559394.61  449  294          - 3106732.97      -   153  379s
  5493  5570 3560252.98  464  305          - 3106732.97      -   155  391s
  5705  5775 3560867.81  477  314          - 3106732.97      -   155  405s
  5914  5990 3561150.12  487  308          - 3106732.97      -   155  419s
  6132  6269 3561397.92  498  330          - 3106732.97      -   155  433s
  6414  6534 3561844.08  511  289          - 3106732.97      -   153  447s
  6687  6798 3563672.67  518  315          - 3106732.97      -   152  463s
  6953  7049 3564453.62  528  313          - 3106732.97      -   151  481s
  7212  7292 3565153.29  546  307          - 3106732.97      -   151  497s
  7469  7562 3565862.94  562  314          - 3106732.97      -   153  514s
  7744  7831 3566558.02  578  317          - 3106732.97      -   152  533s
  8021  8118 3566846.26  604  343          - 3106732.97      -   151  551s
  8313  8119 3148031.43  132  213          - 3106732.97      -   152  598s
  8315  8120 3568308.58  575  221          - 3106732.97      -   152  603s
  8316  8121 3110661.48   19  220          - 3106732.97      -   152  606s
  8318  8122 3111801.55   44  222          - 3106732.97      -   152  611s
  8320  8124 3545426.45  450  231          - 3106732.97      -   152  618s
  8321  8124 3289862.73   90  223          - 3106732.97      -   152  620s
  8322  8125 3135071.86  203  223          - 3106732.97      -   152  710s
  8323  8129 3106732.97   13  218          - 3106732.97      -   2.4  716s
  8329  8134 3107203.99   15  241          - 3106732.97      -   2.6  806s
  8345  8171 3107928.99   17  220          - 3106732.97      -   3.2  815s
  8402  8188 3108070.99   21  219          - 3107180.54      -   5.6  822s
  8424  8197 3108386.16   22  215          - 3107180.54      -   6.3  826s
  8463  8213 3108454.06   24  215          - 3107180.54      -   8.1  833s
  8479  8222 3109695.99   25  218          - 3107180.54      -   9.1  836s
  8513  8241 3110211.27   26  215          - 3107180.54      -  11.0  843s
  8532  8249 3110246.94   27  221          - 3107180.54      -  11.6  847s
  8548  8255 3111742.27   27  212          - 3107180.54      -  12.1  850s
  8575  8270 3110379.36   28  213          - 3107180.54      -  13.2  857s
  8592  8275 3110515.63   29  214          - 3107180.54      -  13.6  861s
  8608  8286 3111750.93   30  226          - 3107180.54      -  15.0  865s
  8645  8299 3110600.69   31  228          - 3107180.54      -  16.1  873s
  8663  8307 3110623.90   32  219          - 3107180.54      -  16.8  877s
  8683  8320 3111908.72   32  213          - 3107180.54      -  17.8  881s
  8704  8331 3111703.81   33  223          - 3107180.54      -  18.3  886s
  8725  8345 3111485.51   34  232          - 3107180.54      -  18.9  891s
  8749  8353 3111193.93   36  211          - 3107180.54      -  19.5  896s
  8770  8363 3111289.53   37  210          - 3107180.54      -  20.2  901s
  8792  8372 3111333.66   38  215          - 3107180.54      -  21.0  906s
  8815  8384 3111371.94   39  218          - 3107180.54      -  21.9  912s
  8840  8393 3111454.88   40  225          - 3107180.54      -  23.1  917s
  8864  8403 3111756.57   40  227          - 3107180.54      -  23.9  923s
  8890  8415 3113504.74   41  228          - 3107180.54      -  24.8  929s
  8916  8426 3112725.74   42  220          - 3107180.54      -  25.8  936s
  8945  8441 3112414.09   44  233          - 3107180.54      -  26.9  943s
  8974  8454 3112415.04   45  233          - 3107180.54      -  28.2  949s
  9004  8465 3112482.58   46  232          - 3107180.54      -  28.8  957s
  9033  8482 3112697.67   47  242          - 3107180.54      -  29.7  964s
  9066  8497 3114047.99   48  218          - 3107180.54      -  30.5  973s
  9098  8514 3114766.40   49  225          - 3107180.54      -  31.4  981s
  9135  8527 3112931.71   51  236          - 3107180.54      -  32.5  989s
  9167  8545 3113027.91   52  237          - 3107180.54      -  33.7  999s
  9204  8558 3115265.77   53  243          - 3107180.54      -  35.3 1008s
  9240  8571 3113885.32   54  235          - 3107180.54      -  36.5 1018s
  9275  8586 3114188.76   56  240          - 3107180.54      -  37.6 1028s
  9316  8599 3114418.68   58  229          - 3107180.54      -  38.6 1038s
  9356  8613 3122578.38   59  222          - 3107180.54      -  40.3 1049s
  9403  8623 3129695.32   61  217          - 3107180.54      -  41.3 1060s
  9446  8644 3127232.23   63  260          - 3107180.54      -  43.2 1072s
  9499  8661 3126804.42   64  223          - 3107180.54      -  44.7 1084s
  9551  8654 3137035.95   65  203          - 3107180.54      -  47.6 1331s
  9565  8665 3115678.36   66  222          - 3107180.54      -  49.2 1542s
  9582  8691 3115868.36   67  217          - 3107180.54      -  52.3 1556s
  9634  8682 infeasible   69               - 3107180.54      -  54.8 1600s
  9649  8715 3118221.88   70  212          - 3107180.54      -  56.0 1616s
  9707  8736 3116879.44   73  263          - 3107180.54      -  58.4 1631s
  9772  8763 3117979.96   76  255          - 3107180.54      -  60.4 1648s
  9841  8752 3118015.23   79  235          - 3107180.54      -  62.5 1691s
  9854  8761 infeasible   79               - 3107180.54      -  63.0 1899s
  9881  8759 3118110.44   81  210          - 3107180.54      -  63.9 2191s
  9896  8816 3128353.81   81  202          - 3107180.54      -  65.2 2210s
  9975  8862 3118340.13   84  209          - 3107180.54      -  67.0 2231s
 10058  8898 3122392.00   87  209          - 3107180.54      -  69.1 2251s
 10145  8883 3119306.01   90  195          - 3107180.54      -  71.5 2304s
 10160  8945 infeasible   90               - 3107180.54      -  71.9 2326s
 10257  8982 3119496.82   94  208          - 3107180.54      -  74.3 2350s
 10365  9027 3139051.82   97  191          - 3107180.54      -  76.9 2374s
 10481  9001 3119893.60  101  204          - 3107180.54      -  79.6 2437s
 10497  9090 3121119.73  101  207          - 3107180.54      -  80.4 2463s
 10614  9121 3134622.97  105  213          - 3107180.54      -  83.9 2490s
 10733  9176 3122100.54  108  212          - 3107180.54      -  87.1 2518s
 10865  9148 3140760.51  111  193          - 3107180.54      -  89.5 2657s
 10884  9229 infeasible  112               - 3107180.54      -  91.4 2687s
 11034  9287 3120926.30  118  224          - 3107180.54      -  93.8 2718s
 11200  9328 3122564.50  122  250          - 3107180.54      -  96.9 2750s
 11353  9378 3130457.19  129  211          - 3107180.54      -   100 2784s
 11513  9452 3130622.15  137  216          - 3107180.54      -   103 2819s
 11682  9396 3131524.58  246  223          - 3107180.54      -   106 2820s
 11700  9406 3130316.73  142  214          - 3107180.54      -   106 2979s
 11717  9515 3127084.54  143  215          - 3107180.54      -   108 3016s
 11888  9594 3123035.28  152  220          - 3107180.54      -   112 3055s
 12071  9670 3146061.60  166  219          - 3107180.54      -   116 3096s
 12256  9738 3130826.56  175  220          - 3107180.54      -   122 3138s
 12422  9703 3144070.18  182  212          - 3107180.54      -   126 3333s
 12446  9848 3126466.96  183  223          - 3107180.54      -   129 3378s
 12648  9916 3127138.04  193  223          - 3107180.54      -   132 3424s
 12848  9996 3149544.53  203  211          - 3107180.54      -   137 3471s
 13058 10089 3147999.51  210  210          - 3107180.54      -   141 3520s
 13277 10034 3129373.02  220  212          - 3107180.54      -   147 3627s
 13297 10200 3132637.93  220  217          - 3107180.54      -   148 3680s
 13530 10286 3131750.93  235  208          - 3107180.54      -   154 3734s
 13775 10241 3493256.32  244  214          - 3107180.54      -   158 3798s
 13820 10395 3494798.57  245  200          - 3107180.54      -   159 3856s
 14086 10520 3524787.48  258  192          - 3107180.54      -   164 3915s
 14403 10442 3496480.71  277  200          - 3107180.54      -   169 4171s
 14433 10660 3526936.78  277  192          - 3107180.54      -   170 4235s
 14759 10782 3526399.28  291  196          - 3107180.54      -   174 4299s
 15108 10912 3527057.42  311  211          - 3107180.54      -   177 4365s
 15454 10838 3524772.25  336  198          - 3107180.54      -   183 4505s
 15501 11085 3527882.82  337  202          - 3107180.54      -   184 4573s
 15860 11257 3519358.35  359  199          - 3107180.54      -   190 4640s
 16235 11399 3519701.65  380  195          - 3107180.54      -   195 4708s
 16581 11383 3520296.25  399  202          - 3107180.54      -   199 4933s
 16686 11692 3520403.48  407  205          - 3107180.54      -   201 5237s
H16687 11285                    5226350.4113 3107180.54  40.5%   201 5237s
H17116 10765                    4779746.5577 3107180.54  35.0%   207 5538s
H17117 10397                    4699388.9492 3107180.54  33.9%   207 5538s
H17118 10049                    4668539.9677 3107180.54  33.4%   207 5538s
H17121  9717                    4655418.8404 3107180.54  33.3%   207 5538s
H17126  9400                    4648273.5912 3107180.54  33.2%   207 5538s
H17129  9230                    4640934.8632 3107180.54  33.0%   207 5977s
H17213  8918                    4504513.8347 3107180.54  31.0%   210 5977s
H17240  8639                    4480898.5735 3107180.54  30.7%   210 5977s
H17266  8443                    4474974.8735 3107180.54  30.6%   209 6327s
H17268  8199                    4474111.8265 3107180.54  30.6%   209 6327s
H17269  7968                    4422493.3502 3107180.54  29.7%   209 6327s
H17272  7747                    4420181.6520 3107180.54  29.7%   210 6327s
H17313  7524                    4418355.9457 3107180.54  29.7%   210 6327s
H17319  7324                    4404045.7523 3107180.54  29.4%   210 6327s
H17350  7196                    4392580.5523 3107180.54  29.3%   209 6781s
H17351  7016                    4389856.1410 3107180.54  29.2%   209 6781s
H17354  6845                    4388449.9997 3107180.54  29.2%   210 6781s
H17369  6679                    4381355.3517 3107180.54  29.1%   211 6781s
H17379  6631                    4378501.9350 3107180.54  29.0%   211 6781s
 17424  6832 3523045.30  447  216 4378501.94 3107180.54  29.0%   212 7200s
H17446  6832                    4378151.9258 3107180.54  29.0%   212 7200s
H17630  6832                    4368801.5263 3107180.54  28.9%   215 7200s

Cutting planes:
  Learned: 1
  Gomory: 6
  Implied bound: 12
  MIR: 66
  RLT: 214

Explored 17635 nodes (5092258 simplex iterations) in 7200.51 seconds (19683.90 work units)
Thread count was 10 (of 10 available processors)

Solution count 10: 4.3688e+06 4.3688e+06 4.37815e+06 ... 4.41836e+06

Time limit reached
Best objective 4.368801518705e+06, best bound 3.107180544536e+06, gap 28.8780%
--------------------------------
../../result/data/prodhon/coord100-5-1-2e.log
--------------------------------
All costs: 
Fixed Cost: 	1404750.0
Trans Cost: 	843474.1000000001
SFS Cost:   	509314.0
BOPS Cost:  	803096.0465374993
OS Cost:    	808167.3721678155
--------------------------------
location: [1, 3, 4]
loc cost: 1404750
--------------------------------
SFS: 
veh[0]: [3, 23, 82, 53, 94, 3]
veh[1]: [4, 70, 58, 57, 90, 4]
veh[2]: [1, 9, 104, 54, 98, 1]
veh[3]: [1, 50, 18, 30, 92, 1]
veh[4]: empty
veh[5]: [3, 37, 102, 56, 10, 3]
veh[6]: [3, 14, 79, 63, 3]
veh[7]: [4, 55, 67, 77, 27, 4]
veh[8]: [4, 69, 72, 65, 101, 4]
veh[9]: [3, 62, 33, 103, 75, 3]
veh[10]: [4, 99, 78, 4]
veh[11]: [1, 32, 17, 88, 59, 1]
veh[12]: [3, 93, 80, 61, 8, 3]
veh[13]: [4, 11, 31, 41, 4]
veh[14]: [3, 6, 44, 81, 42, 3]
veh[15]: empty
veh[16]: [3, 25, 66, 48, 29, 3]
veh[17]: [3, 96, 7, 51, 84, 3]
veh[18]: empty
veh[19]: [3, 22, 43, 73, 76, 3]
veh[20]: empty
veh[21]: [3, 68, 34, 35, 95, 97, 3]
veh[22]: [3, 60, 74, 86, 3]
veh[23]: [3, 45, 89, 13, 21, 3]
veh[24]: [4, 83, 12, 52, 26, 4]
veh[25]: [3, 49, 91, 46, 39, 3]
veh[26]: [3, 36, 100, 19, 15, 3]
veh[27]: empty
veh[28]: empty
veh[29]: empty
veh[30]: [1, 24, 64, 40, 16, 1]
veh[31]: [3, 105, 47, 28, 85, 3]
veh[32]: empty
veh[33]: [1, 87, 20, 38, 71, 1]
--------------------------------
BOPS: 
cus [6]: [4, 3, 1, -1]
cus [7]: [4, 1, 3, -1]
cus [8]: [4, 1, 3, -1]
cus [9]: [4, 1, 3, -1]
cus [10]: [4, 1, 3, -1]
cus [11]: [4, 1, 3, -1]
cus [12]: [4, 3, 1, -1]
cus [13]: [4, 1, 3, -1]
cus [14]: [1, 3, 4, -1]
cus [15]: [4, 1, 3, -1]
cus [16]: [4, 1, 3, -1]
cus [17]: [4, 1, 3, -1]
cus [18]: [4, 1, 3, -1]
cus [19]: [4, 1, 3, -1]
cus [20]: [4, 1, 3, -1]
cus [21]: [4, 1, 3, -1]
cus [22]: [4, 3, 1, -1]
cus [23]: [4, 1, 3, -1]
cus [24]: [4, 1, 3, -1]
cus [25]: [4, 1, 3, -1]
cus [26]: [4, 3, 1, -1]
cus [27]: [4, 1, 3, -1]
cus [28]: [4, 1, 3, -1]
cus [29]: [4, 1, 3, -1]
cus [30]: [4, 1, 3, -1]
cus [31]: [4, 1, 3, -1]
cus [32]: [4, 1, 3, -1]
cus [33]: [4, 1, 3, -1]
cus [34]: [4, 1, 3, -1]
cus [35]: [1, 3, 4, -1]
cus [36]: [4, 1, 3, -1]
cus [37]: [4, 3, 1, -1]
cus [38]: [4, 3, 1, -1]
cus [39]: [1, 4, 3, -1]
cus [40]: [4, 1, 3, -1]
cus [41]: [4, 1, 3, -1]
cus [42]: [4, 3, 1, -1]
cus [43]: [4, 1, 3, -1]
cus [44]: [4, 3, 1, -1]
cus [45]: [4, 1, 3, -1]
cus [46]: [4, 3, 1, -1]
cus [47]: [4, 1, 3, -1]
cus [48]: [4, 1, 3, -1]
cus [49]: [4, 3, 1, -1]
cus [50]: [4, 1, 3, -1]
cus [51]: [4, 1, 3, -1]
cus [52]: [4, 3, 1, -1]
cus [53]: [4, 1, 3, -1]
cus [54]: [4, 1, 3, -1]
cus [55]: [4, 1, 3, -1]
cus [56]: [4, 1, 3, -1]
cus [57]: [4, 1, 3, -1]
cus [58]: [4, 1, 3, -1]
cus [59]: [4, 1, 3, -1]
cus [60]: [3, 1, 4, -1]
cus [61]: [4, 1, 3, -1]
cus [62]: [4, 1, 3, -1]
cus [63]: [4, 1, 3, -1]
cus [64]: [4, 1, 3, -1]
cus [65]: [4, 1, 3, -1]
cus [66]: [4, 1, 3, -1]
cus [67]: [4, 1, 3, -1]
cus [68]: [4, 1, 3, -1]
cus [69]: [4, 1, 3, -1]
cus [70]: [4, 1, 3, -1]
cus [71]: [1, 4, 3, -1]
cus [72]: [4, 1, 3, -1]
cus [73]: [4, 1, 3, -1]
cus [74]: [3, 1, 4, -1]
cus [75]: [4, 1, 3, -1]
cus [76]: [4, 1, 3, -1]
cus [77]: [4, 1, 3, -1]
cus [78]: [4, 1, 3, -1]
cus [79]: [4, 1, 3, -1]
cus [80]: [4, 1, 3, -1]
cus [81]: [4, 3, 1, -1]
cus [82]: [4, 1, 3, -1]
cus [83]: [4, 1, 3, -1]
cus [84]: [4, 1, 3, -1]
cus [85]: [4, 1, 3, -1]
cus [86]: [3, 1, 4, -1]
cus [87]: [4, 1, 3, -1]
cus [88]: [4, 1, 3, -1]
cus [89]: [4, 1, 3, -1]
cus [90]: [4, 1, 3, -1]
cus [91]: [4, 3, 1, -1]
cus [92]: [4, 1, 3, -1]
cus [93]: [4, 1, 3, -1]
cus [94]: [1, 4, 3, -1]
cus [95]: [1, 4, 3, -1]
cus [96]: [4, 3, 1, -1]
cus [97]: [1, 3, 4, -1]
cus [98]: [4, 1, 3, -1]
cus [99]: [4, 1, 3, -1]
cus [100]: [4, 1, 3, -1]
cus [101]: [4, 1, 3, -1]
cus [102]: [4, 3, 1, -1]
cus [103]: [4, 1, 3, -1]
cus [104]: [4, 1, 3, -1]
cus [105]: [4, 1, 3, -1]
--------------------------------
OS: 
cus [6]: [6, 4, 1, 3, -1]
cus [7]: [7, 4, 1, 3, -1]
cus [8]: [8, 4, 1, 3, -1]
cus [9]: [9, 4, 1, 3, -1]
cus [10]: [10, 4, 1, 3, -1]
cus [11]: [11, 4, 1, 3, -1]
cus [12]: [12, 4, 1, 3, -1]
cus [13]: [13, 4, 1, 3, -1]
cus [14]: [14, 1, 3, 4, -1]
cus [15]: [15, 4, 1, 3, -1]
cus [16]: [16, 4, 1, 3, -1]
cus [17]: [17, 4, 1, 3, -1]
cus [18]: [18, 4, 1, 3, -1]
cus [19]: [19, 4, 1, 3, -1]
cus [20]: [20, 4, 1, 3, -1]
cus [21]: [21, 4, 1, 3, -1]
cus [22]: [22, 4, 1, 3, -1]
cus [23]: [23, 4, 1, 3, -1]
cus [24]: [24, 4, 1, 3, -1]
cus [25]: [25, 4, 1, 3, -1]
cus [26]: [26, 4, 1, 3, -1]
cus [27]: [27, 4, 1, 3, -1]
cus [28]: [28, 4, 1, 3, -1]
cus [29]: [29, 4, 1, 3, -1]
cus [30]: [30, 4, 1, 3, -1]
cus [31]: [31, 4, 1, 3, -1]
cus [32]: [32, 4, 1, 3, -1]
cus [33]: [33, 4, 1, 3, -1]
cus [34]: [34, 4, 1, 3, -1]
cus [35]: [35, 1, 3, 4, -1]
cus [36]: [36, 4, 1, 3, -1]
cus [37]: [37, 4, 1, 3, -1]
cus [38]: [38, 4, 1, 3, -1]
cus [39]: [39, 1, 3, 4, -1]
cus [40]: [40, 4, 1, 3, -1]
cus [41]: [41, 4, 1, 3, -1]
cus [42]: [42, 4, 1, 3, -1]
cus [43]: [43, 4, 1, 3, -1]
cus [44]: [44, 4, 1, 3, -1]
cus [45]: [45, 4, 1, 3, -1]
cus [46]: [46, 4, 1, 3, -1]
cus [47]: [47, 4, 1, 3, -1]
cus [48]: [48, 4, 1, 3, -1]
cus [49]: [49, 4, 1, 3, -1]
cus [50]: [50, 4, 1, 3, -1]
cus [51]: [51, 4, 1, 3, -1]
cus [52]: [52, 4, 1, 3, -1]
cus [53]: [53, 4, 1, 3, -1]
cus [54]: [54, 4, 1, 3, -1]
cus [55]: [55, 4, 1, 3, -1]
cus [56]: [56, 4, 1, 3, -1]
cus [57]: [57, 4, 1, 3, -1]
cus [58]: [58, 4, 1, 3, -1]
cus [59]: [59, 4, 1, 3, -1]
cus [60]: [60, 3, 1, 4, -1]
cus [61]: [61, 4, 1, 3, -1]
cus [62]: [62, 4, 1, 3, -1]
cus [63]: [63, 4, 1, 3, -1]
cus [64]: [64, 4, 1, 3, -1]
cus [65]: [65, 4, 1, 3, -1]
cus [66]: [66, 4, 1, 3, -1]
cus [67]: [67, 4, 1, 3, -1]
cus [68]: [68, 4, 1, 3, -1]
cus [69]: [69, 4, 1, 3, -1]
cus [70]: [70, 4, 1, 3, -1]
cus [71]: [71, 1, 3, 4, -1]
cus [72]: [72, 4, 1, 3, -1]
cus [73]: [73, 4, 1, 3, -1]
cus [74]: [74, 3, 1, 4, -1]
cus [75]: [75, 4, 1, 3, -1]
cus [76]: [76, 4, 1, 3, -1]
cus [77]: [77, 4, 1, 3, -1]
cus [78]: [78, 4, 1, 3, -1]
cus [79]: [79, 4, 1, 3, -1]
cus [80]: [80, 4, 1, 3, -1]
cus [81]: [81, 4, 1, 3, -1]
cus [82]: [82, 4, 1, 3, -1]
cus [83]: [83, 4, 1, 3, -1]
cus [84]: [84, 4, 1, 3, -1]
cus [85]: [85, 4, 1, 3, -1]
cus [86]: [86, 3, 1, 4, -1]
cus [87]: [87, 4, 1, 3, -1]
cus [88]: [88, 4, 1, 3, -1]
cus [89]: [89, 4, 1, 3, -1]
cus [90]: [90, 4, 1, 3, -1]
cus [91]: [91, 4, 1, 3, -1]
cus [92]: [92, 4, 1, 3, -1]
cus [93]: [93, 4, 1, 3, -1]
cus [94]: [94, 1, 3, 4, -1]
cus [95]: [95, 1, 3, 4, -1]
cus [96]: [96, 4, 1, 3, -1]
cus [97]: [97, 1, 3, 4, -1]
cus [98]: [98, 4, 1, 3, -1]
cus [99]: [99, 4, 1, 3, -1]
cus [100]: [100, 4, 1, 3, -1]
cus [101]: [101, 4, 1, 3, -1]
cus [102]: [102, 4, 1, 3, -1]
cus [103]: [103, 4, 1, 3, -1]
cus [104]: [104, 4, 1, 3, -1]
cus [105]: [105, 4, 1, 3, -1]
-----------------------------
data.num_cus = 100
data.num_store = 5
data.coord_rw = [[0, 0]]
data.coord_store = [[1, 13], [46, 4], [2, 3], [13, 19], [3, 37]]
data.coord_cus = [[31, 6], [36, 20], [9, 19], [47, 42], [28, 20], [38, 43], [41, 4], [36, 30], [4, 10], [43, 16], [33, 45], [39, 30], [6, 40], [50, 20], [48, 14], [34, 34], [49, 3], [26, 14], [28, 44], [21, 38], [34, 11], [41, 32], [44, 46], [27, 48], [2, 36], [34, 32], [50, 27], [36, 26], [16, 17], [8, 10], [45, 28], [49, 11], [28, 10], [9, 10], [39, 50], [33, 31], [20, 8], [39, 48], [29, 3], [43, 32], [34, 9], [42, 40], [25, 49], [27, 4], [29, 37], [28, 32], [42, 8], [18, 22], [20, 33], [28, 48], [35, 19], [49, 36], [49, 35], [25, 25], [6, 5], [6, 24], [38, 28], [24, 27], [49, 48], [7, 44], [18, 44], [45, 46], [23, 15], [17, 47], [47, 18], [5, 18], [5, 47], [41, 47], [5, 2], [24, 49], [32, 46], [48, 43], [20, 35], [20, 38], [9, 29], [29, 2], [26, 20], [26, 11], [16, 26], [34, 43], [1, 2], [48, 14], [34, 44], [41, 32], [41, 13], [46, 7], [7, 34], [8, 34], [9, 11], [3, 15], [35, 9], [1, 11], [17, 34], [20, 42], [46, 30], [9, 43], [45, 8], [45, 31], [50, 37], [38, 39]]
data.cap_veh_fir = 0
data.cap_veh_sec = 70
data.cap_store = [770, 700, 770, 770, 770]
data.dmd_cus = [18, 17, 14, 11, 15, 16, 11, 12, 14, 19, 17, 16, 20, 13, 11, 17, 17, 19, 12, 13, 20, 14, 13, 16, 13, 16, 18, 14, 13, 11, 16, 19, 20, 16, 19, 14, 16, 18, 11, 19, 12, 16, 20, 12, 12, 13, 12, 18, 20, 20, 15, 12, 16, 15, 12, 18, 15, 13, 17, 15, 20, 14, 15, 17, 13, 12, 17, 19, 16, 20, 11, 13, 17, 19, 15, 18, 12, 16, 16, 16, 13, 19, 20, 20, 18, 20, 14, 20, 18, 13, 20, 15, 15, 15, 14, 17, 20, 18, 19, 18]
data.fixed_cost_store = [416880, 456980, 459770, 528100, 455040]
data.fixed_veh_fir = 0
data.fixed_veh_sec = 1000
data.dist_matrix = [[    0.  1304.  4618. ...  5465.  6221.  5446.]
 [ 1304.     0.  9179. ...  9508. 10913.  9045.]
 [ 4618.  9179.     0. ...  5404.  6649.  7181.]
 ...
 [ 5465.  9508.  5404. ...     0.  1563.  2127.]
 [ 6221. 10913.  6649. ...  1563.     0.  2434.]
 [ 5446.  9045.  7181. ...  2127.  2434.     0.]]
data.accept_rate = 3
data.fixed_cost_rate = 10
data.i_0 = -1
data.H = range(0, 1)
data.I = range(1, 6)
data.I_bar = [-1, 1, 2, 3, 4, 5]
data.M = range(6, 106)
data.N = range(6, 106)
data.S = 16155.0
data.R = range(1, 5)
data.pi = 1329.7
data.rho_s = 0.1
data.rho_L = 1
data.rho_M = 0.1
data.rho_N = 0.1
data.q = 0.95
-----------------------------
